147
1 2 3 4 5 6 7 8 15 18 23 24 31 35 40 53 57 77 84 88 90 196 229 313 452 566 718 724 809 58 365 395 570 572 692 793 833 885 14 25 85 115 451 507 578 744 791 896 1113 129 426 427 614 631 676 1131 151 193 319 335 797 923 944 1021 223 418 684 688 245 251 381 389 51 175 177 203 421 480 694 852 907 101 309 383 423 438 733 66 97 125 267 380 429 464 538 554 564 19 83 122 208 255 301 458 474 590 715 935 37 1154 813 1120 13 731 734 1137 403 579 975 1136 1144 616 1019 978 557 1056 921 933 1132 701 598 254 539 1070 344 965 246 592 136 1015 142 526 662 730 937 362 518
